p tw 123 136
1 2
2 36
3 14
4 5
5 6
6 7
6 9
7 8
8 9
9 10
10 11
11 12
12 13
13 15
14 25
14 30
15 16
16 17
17 18
18 19
19 20
20 21
21 22
22 23
23 24
24 26
25 29
26 27
27 28
29 27
30 31
31 32
32 33
33 34
34 35
35 37
36 47
37 38
38 39
39 40
39 41
40 27
41 42
42 43
43 44
44 45
45 46
46 48
47 58
48 49
49 50
50 51
51 52
52 53
53 54
54 55
55 56
56 57
57 59
58 69
59 60
60 61
60 73
61 62
62 63
63 64
63 67
64 65
64 123
65 66
66 123
67 68
68 70
68 73
69 80
70 71
71 72
71 73
72 27
73 74
74 75
75 76
76 77
77 78
77 85
78 79
79 81
80 91
81 82
82 83
83 84
84 27
85 86
86 87
87 88
88 89
89 90
90 92
90 96
91 102
92 93
93 94
93 96
94 95
95 123
96 97
97 98
98 99
98 101
99 100
100 123
101 103
102 113
103 104
104 105
104 107
105 106
106 27
107 108
108 109
109 110
110 111
111 112
112 114
113 3
114 115
115 116
116 117
117 118
117 119
118 27
119 120
120 121
121 122
122 87
123 4
